Route #1: 32 33 53 73 95 24
Route #2: 7 2 45 43 29 36 72 57
Route #3: 38 47 26 48 96 64 34
Route #4: 5 12 58
Route #5: 30 85 11 79
Route #6: 25 65 78 42 28
Route #7: 20 41 22 15
Route #8: 87 37 6 49 14
Route #9: 89 98 99 62 71
Route #10: 44 67 88 40
Route #11: 80 94 56 21
Route #12: 1 70 54
Route #13: 35 46 31
Route #14: 93 75
Route #15: 86 9 92
Route #16: 69 16 55 76
Route #17: 83 51 81
Route #18: 82 60 59
Route #19: 52 91 50
Route #20: 66 84 90 68
Route #21: 74 13 4
Route #22: 19 97 27
Route #23: 18 10 39
Route #24: 100 61 23
Route #25: 63 77 3
Route #26: 17 8
